p edge 65 640 53
e 1 2
e 1 3
e 1 5
e 1 13
e 1 16
e 1 19
e 1 25
e 1 30
e 1 34
e 1 35
e 1 36
e 1 37
e 1 38
e 1 40
e 1 44
e 1 49
e 1 50
e 1 53
e 1 57
e 1 58
e 1 60
e 2 5
e 2 13
e 2 14
e 2 19
e 2 24
e 2 25
e 2 27
e 2 28
e 2 31
e 2 33
e 2 34
e 2 37
e 2 39
e 2 40
e 2 42
e 2 45
e 2 46
e 2 47
e 2 50
e 2 52
e 2 54
e 2 57
e 2 58
e 3 5
e 3 6
e 3 12
e 3 14
e 3 24
e 3 26
e 3 28
e 3 29
e 3 30
e 3 37
e 3 39
e 3 40
e 3 45
e 3 46
e 3 49
e 3 50
e 3 59
e 3 62
e 4 11
e 4 21
e 4 24
e 4 26
e 4 28
e 4 33
e 4 38
e 4 40
e 4 44
e 4 46
e 4 51
e 4 56
e 4 61
e 4 64
e 4 65
e 5 11
e 5 12
e 5 13
e 5 15
e 5 20
e 5 24
e 5 25
e 5 27
e 5 30
e 5 31
e 5 35
e 5 36
e 5 39
e 5 42
e 5 48
e 5 50
e 5 52
e 5 59
e 5 61
e 5 62
e 5 63
e 6 8
e 6 19
e 6 20
e 6 25
e 6 26
e 6 32
e 6 35
e 6 37
e 6 43
e 6 45
e 6 46
e 6 49
e 6 50
e 6 51
e 6 55
e 6 56
e 6 61
e 6 63
e 7 8
e 7 10
e 7 11
e 7 14
e 7 17
e 7 20
e 7 34
e 7 36
e 7 37
e 7 39
e 7 46
e 7 47
e 7 51
e 7 52
e 7 55
e 7 58
e 7 60
e 8 10
e 8 11
e 8 14
e 8 15
e 8 20
e 8 22
e 8 25
e 8 29
e 8 36
e 8 37
e 8 38
e 8 40
e 8 44
e 8 46
e 8 47
e 8 49
e 8 51
e 8 56
e 8 58
e 8 63
e 9 11
e 9 14
e 9 15
e 9 20
e 9 22
e 9 30
e 9 35
e 9 39
e 9 44
e 9 45
e 9 52
e 9 53
e 9 54
e 9 59
e 9 60
e 9 63
e 9 64
e 10 12
e 10 13
e 10 16
e 10 17
e 10 26
e 10 27
e 10 29
e 10 33
e 10 38
e 10 40
e 10 45
e 10 48
e 10 57
e 10 58
e 10 59
e 10 61
e 11 15
e 11 16
e 11 17
e 11 21
e 11 33
e 11 35
e 11 36
e 11 37
e 11 42
e 11 43
e 11 47
e 11 48
e 11 53
e 11 60
e 12 19
e 12 22
e 12 25
e 12 27
e 12 28
e 12 36
e 12 37
e 12 38
e 12 39
e 12 44
e 12 48
e 12 53
e 12 59
e 12 64
e 13 23
e 13 24
e 13 25
e 13 33
e 13 43
e 13 44
e 13 50
e 13 51
e 13 54
e 13 57
e 13 58
e 13 59
e 13 60
e 14 28
e 14 32
e 14 35
e 14 41
e 14 45
e 14 49
e 14 53
e 14 54
e 14 56
e 14 57
e 14 59
e 14 61
e 15 17
e 15 18
e 15 19
e 15 21
e 15 23
e 15 24
e 15 25
e 15 38
e 15 39
e 15 41
e 15 43
e 15 45
e 15 47
e 15 49
e 15 51
e 16 17
e 16 20
e 16 24
e 16 25
e 16 30
e 16 32
e 16 33
e 16 34
e 16 37
e 16 39
e 16 43
e 16 44
e 16 46
e 16 49
e 16 51
e 16 54
e 16 55
e 16 56
e 17 27
e 17 29
e 17 30
e 17 31
e 17 37
e 17 38
e 17 46
e 17 54
e 17 55
e 17 56
e 17 62
e 17 64
e 17 65
e 18 20
e 18 22
e 18 23
e 18 26
e 18 30
e 18 33
e 18 36
e 18 37
e 18 44
e 18 51
e 18 61
e 18 62
e 18 65
e 19 20
e 19 23
e 19 24
e 19 25
e 19 43
e 19 44
e 19 45
e 19 46
e 19 48
e 19 50
e 19 51
e 19 52
e 19 55
e 19 56
e 19 57
e 20 24
e 20 25
e 20 27
e 20 30
e 20 32
e 20 33
e 20 40
e 20 41
e 20 63
e 21 24
e 21 25
e 21 27
e 21 36
e 21 39
e 21 41
e 21 45
e 21 46
e 21 50
e 21 51
e 21 57
e 21 59
e 21 61
e 21 65
e 22 25
e 22 28
e 22 31
e 22 33
e 22 35
e 22 39
e 22 40
e 22 43
e 22 44
e 22 50
e 22 51
e 22 56
e 22 63
e 23 24
e 23 31
e 23 32
e 23 33
e 23 38
e 23 43
e 23 44
e 23 45
e 23 48
e 23 50
e 23 51
e 23 54
e 23 56
e 23 63
e 23 65
e 24 25
e 24 32
e 24 34
e 24 38
e 24 46
e 24 53
e 24 55
e 24 57
e 24 59
e 24 60
e 24 61
e 24 64
e 25 26
e 25 27
e 25 31
e 25 36
e 25 38
e 25 40
e 25 42
e 25 46
e 25 48
e 25 49
e 25 50
e 25 53
e 25 55
e 25 63
e 26 29
e 26 37
e 26 42
e 26 43
e 26 53
e 26 60
e 26 65
e 27 28
e 27 29
e 27 31
e 27 43
e 27 48
e 27 49
e 27 50
e 27 52
e 27 55
e 27 57
e 28 29
e 28 32
e 28 38
e 28 42
e 28 49
e 28 52
e 28 57
e 28 63
e 28 64
e 29 30
e 29 33
e 29 38
e 29 39
e 29 42
e 29 46
e 29 48
e 29 50
e 29 52
e 29 54
e 29 55
e 29 58
e 29 59
e 29 61
e 29 65
e 30 34
e 30 40
e 30 43
e 30 44
e 30 45
e 30 46
e 30 48
e 30 50
e 30 53
e 30 55
e 30 58
e 30 59
e 30 63
e 30 65
e 31 35
e 31 40
e 31 44
e 31 50
e 31 51
e 31 53
e 31 62
e 32 34
e 32 35
e 32 36
e 32 38
e 32 48
e 32 49
e 32 55
e 32 58
e 32 59
e 32 61
e 32 64
e 32 65
e 33 38
e 33 39
e 33 40
e 33 42
e 33 43
e 33 44
e 33 46
e 33 49
e 33 55
e 33 57
e 33 58
e 33 60
e 33 61
e 33 63
e 33 65
e 34 35
e 34 36
e 34 38
e 34 40
e 34 50
e 34 54
e 34 60
e 34 64
e 34 65
e 35 38
e 35 39
e 35 42
e 35 44
e 35 48
e 35 49
e 35 53
e 35 55
e 35 57
e 35 58
e 35 59
e 35 60
e 36 38
e 36 42
e 36 46
e 36 51
e 36 54
e 36 55
e 36 56
e 36 59
e 36 64
e 37 38
e 37 39
e 37 43
e 37 44
e 37 45
e 37 46
e 37 49
e 37 52
e 37 54
e 37 60
e 38 44
e 38 48
e 38 55
e 38 56
e 38 57
e 38 58
e 38 60
e 38 65
e 39 41
e 39 43
e 39 45
e 39 48
e 39 50
e 39 51
e 39 61
e 39 64
e 40 46
e 40 48
e 40 52
e 40 53
e 40 56
e 40 57
e 41 42
e 41 43
e 41 50
e 41 53
e 41 63
e 41 65
e 42 46
e 42 47
e 42 49
e 42 52
e 42 53
e 42 60
e 42 65
e 43 48
e 43 53
e 43 54
e 43 55
e 43 59
e 43 63
e 43 64
e 44 45
e 44 48
e 44 49
e 44 50
e 44 55
e 44 56
e 44 57
e 44 58
e 44 60
e 44 65
e 45 47
e 45 50
e 45 53
e 45 56
e 45 62
e 45 65
e 46 49
e 46 55
e 46 58
e 46 61
e 46 64
e 46 65
e 47 52
e 47 54
e 47 55
e 47 56
e 47 60
e 47 61
e 47 62
e 47 64
e 47 65
e 48 50
e 48 53
e 48 54
e 48 55
e 48 58
e 48 61
e 49 52
e 49 53
e 49 56
e 49 59
e 49 60
e 49 61
e 49 63
e 50 53
e 50 54
e 50 59
e 50 60
e 50 61
e 51 52
e 51 53
e 51 56
e 51 64
e 52 65
e 53 54
e 53 55
e 53 59
e 53 63
e 53 65
e 54 56
e 54 63
e 54 65
e 55 62
e 55 63
e 55 64
e 56 58
e 56 59
e 56 60
e 56 61
e 57 63
e 57 64
e 58 60
e 58 62
e 58 65
e 59 61
e 59 62
e 60 63
e 61 63
e 63 64
